language Essence 1.3

letting templates be new type enum {templates_1, templates_2, templates_3}
letting design be
        function((templates_1, 1) --> 0, (templates_1, 2) --> 0, (templates_1, 3) --> 0, (templates_1, 4) --> 0,
                 (templates_1, 5) --> 0, (templates_1, 6) --> 0, (templates_1, 7) --> 0, (templates_1, 8) --> 0,
                 (templates_1, 9) --> 0, (templates_1, 10) --> 0, (templates_1, 11) --> 0, (templates_1, 12) --> 0,
                 (templates_1, 13) --> 0, (templates_1, 14) --> 0, (templates_1, 15) --> 0, (templates_1, 16) --> 0,
                 (templates_1, 17) --> 0, (templates_1, 18) --> 0, (templates_1, 19) --> 0, (templates_1, 20) --> 0,
                 (templates_1, 21) --> 0, (templates_1, 22) --> 0, (templates_1, 23) --> 0, (templates_1, 24) --> 0,
                 (templates_1, 25) --> 0, (templates_1, 26) --> 0, (templates_1, 27) --> 0, (templates_1, 28) --> 0,
                 (templates_1, 29) --> 0, (templates_1, 30) --> 0, (templates_1, 31) --> 0, (templates_1, 32) --> 0,
                 (templates_1, 33) --> 0, (templates_1, 34) --> 0, (templates_1, 35) --> 0, (templates_1, 36) --> 0,
                 (templates_1, 37) --> 0, (templates_1, 38) --> 0, (templates_1, 39) --> 0, (templates_1, 40) --> 0,
                 (templates_1, 41) --> 0, (templates_1, 42) --> 0, (templates_1, 43) --> 0, (templates_1, 44) --> 0,
                 (templates_1, 45) --> 0, (templates_1, 46) --> 0, (templates_1, 47) --> 0, (templates_1, 48) --> 0,
                 (templates_1, 49) --> 0, (templates_1, 50) --> 0, (templates_2, 1) --> 0, (templates_2, 2) --> 0,
                 (templates_2, 3) --> 0, (templates_2, 4) --> 0, (templates_2, 5) --> 0, (templates_2, 6) --> 0,
                 (templates_2, 7) --> 0, (templates_2, 8) --> 0, (templates_2, 9) --> 0, (templates_2, 10) --> 0,
                 (templates_2, 11) --> 0, (templates_2, 12) --> 0, (templates_2, 13) --> 0, (templates_2, 14) --> 0,
                 (templates_2, 15) --> 0, (templates_2, 16) --> 0, (templates_2, 17) --> 0, (templates_2, 18) --> 0,
                 (templates_2, 19) --> 0, (templates_2, 20) --> 0, (templates_2, 21) --> 0, (templates_2, 22) --> 0,
                 (templates_2, 23) --> 0, (templates_2, 24) --> 0, (templates_2, 25) --> 0, (templates_2, 26) --> 0,
                 (templates_2, 27) --> 0, (templates_2, 28) --> 0, (templates_2, 29) --> 0, (templates_2, 30) --> 0,
                 (templates_2, 31) --> 0, (templates_2, 32) --> 0, (templates_2, 33) --> 0, (templates_2, 34) --> 0,
                 (templates_2, 35) --> 0, (templates_2, 36) --> 0, (templates_2, 37) --> 0, (templates_2, 38) --> 0,
                 (templates_2, 39) --> 0, (templates_2, 40) --> 0, (templates_2, 41) --> 0, (templates_2, 42) --> 0,
                 (templates_2, 43) --> 0, (templates_2, 44) --> 0, (templates_2, 45) --> 0, (templates_2, 46) --> 0,
                 (templates_2, 47) --> 0, (templates_2, 48) --> 0, (templates_2, 49) --> 0, (templates_2, 50) --> 0,
                 (templates_3, 1) --> 5, (templates_3, 2) --> 5, (templates_3, 3) --> 5, (templates_3, 4) --> 6,
                 (templates_3, 5) --> 8, (templates_3, 6) --> 9, (templates_3, 7) --> 10, (templates_3, 8) --> 10,
                 (templates_3, 9) --> 10, (templates_3, 10) --> 10, (templates_3, 11) --> 13, (templates_3, 12) --> 13,
                 (templates_3, 13) --> 13, (templates_3, 14) --> 13, (templates_3, 15) --> 14, (templates_3, 16) --> 14,
                 (templates_3, 17) --> 14, (templates_3, 18) --> 14, (templates_3, 19) --> 14, (templates_3, 20) --> 14,
                 (templates_3, 21) --> 14, (templates_3, 22) --> 14, (templates_3, 23) --> 16, (templates_3, 24) --> 16,
                 (templates_3, 25) --> 16, (templates_3, 26) --> 18, (templates_3, 27) --> 18, (templates_3, 28) --> 19,
                 (templates_3, 29) --> 19, (templates_3, 30) --> 19, (templates_3, 31) --> 20, (templates_3, 32) --> 20,
                 (templates_3, 33) --> 21, (templates_3, 34) --> 21, (templates_3, 35) --> 21, (templates_3, 36) --> 21,
                 (templates_3, 37) --> 23, (templates_3, 38) --> 23, (templates_3, 39) --> 23, (templates_3, 40) --> 23,
                 (templates_3, 41) --> 23, (templates_3, 42) --> 23, (templates_3, 43) --> 23, (templates_3, 44) --> 23,
                 (templates_3, 45) --> 25, (templates_3, 46) --> 25, (templates_3, 47) --> 25, (templates_3, 48) --> 35,
                 (templates_3, 49) --> 35, (templates_3, 50) --> 37)
letting printings be function(templates_1 --> 0, templates_2 --> 0, templates_3 --> 11)
